3 
4  28 43 58 
5  13 28 40 46 52 57 
6  01 07 12 17 22 27 32 37 42 47 52 57 
7  02 07 12 17 22 27 32 37 42 47 52 57 
8  02 07 12 17 22 27 32 37 42 48 53 58 
9  05 13 20 28 35 43 51 58 
10  06 13 21 28 36 43 51 58 
11  06 13 21 28 36 43 51 58 
12  06 13 21 28 36 43 51 58 
13  06 13 21 28 36 43 51 58 
14  04 08 13 18 23 28 33 38 43 48 53 58 
15  03 08 13 18 23 28 33 38 43 48 53 58 
16  03 08 13 18 23 28 33 38 43 48 53 58 
17  03 08 13 18 23 28 33 38 45 52 
18  00 06 12 17 23 28 32 38 45 52 
19  00 08 15 23 30 37 45 53 
20  05 20 35 50 
21  05 20 35 50 
22  05 20 35 50 
23 
0 
